
Gurobi 11.0.1 (win64) logging started Thu Mar 14 08:07:34 2024

Set parameter LogFile to value "C:\Projetos\Job_Rotation_Algorithms\Outputs\GurobiLogs\gurobi_log-output-26_wee-c67-BorbaRittModel-NoExtraConstraint-2.log"
Gurobi Optimizer version 11.0.1 build v11.0.1rc0 (win64 - Windows 10.0 (19045.2))

CPU model: 11th Gen Intel(R) Core(TM) i7-1165G7 @ 2.80GHz, instruction set [SSE2|AVX|AVX2|AVX512]
Thread count: 4 physical cores, 8 logical processors, using up to 1 threads


Gurobi 11.0.1 (win64) logging started Fri Mar 15 00:45:01 2024

Set parameter LogFile to value "C:\Projetos\Job_Rotation_Algorithms\Outputs\GurobiLogs\gurobi_log-output-26_wee-c67-BorbaRittModel-NoExtraConstraint-2.log"
Gurobi Optimizer version 11.0.1 build v11.0.1rc0 (win64 - Windows 10.0 (19045.2))

CPU model: 11th Gen Intel(R) Core(TM) i7-1165G7 @ 2.80GHz, instruction set [SSE2|AVX|AVX2|AVX512]
Thread count: 4 physical cores, 8 logical processors, using up to 1 threads


Gurobi 11.0.1 (win64) logging started Tue Mar 19 09:19:03 2024

Set parameter LogFile to value "C:\Projetos\Job_Rotation_Algorithms\Outputs\GurobiLogs\gurobi_log-output-26_wee-c67-BorbaRittModel-NoExtraConstraint-2.log"
Gurobi Optimizer version 11.0.1 build v11.0.1rc0 (win64 - Windows 10.0 (19045.2))

CPU model: 11th Gen Intel(R) Core(TM) i7-1165G7 @ 2.80GHz, instruction set [SSE2|AVX|AVX2|AVX512]
Thread count: 4 physical cores, 8 logical processors, using up to 1 threads


Gurobi 11.0.1 (win64) logging started Mon Apr  1 12:48:08 2024

Set parameter LogFile to value "C:\Projetos\Job_Rotation_Algorithms\Outputs\GurobiLogs\gurobi_log-output-26_wee-c67-BorbaRittModel-NoExtraConstraint-2.log"
Gurobi Optimizer version 11.0.1 build v11.0.1rc0 (win64 - Windows 10.0 (19045.2))

CPU model: 11th Gen Intel(R) Core(TM) i7-1165G7 @ 2.80GHz, instruction set [SSE2|AVX|AVX2|AVX512]
Thread count: 4 physical cores, 8 logical processors, using up to 1 threads


Gurobi 11.0.1 (win64) logging started Mon Apr  1 21:35:57 2024

Set parameter LogFile to value "C:\Projetos\Job_Rotation_Algorithms\Outputs\GurobiLogs\gurobi_log-output-26_wee-c67-BorbaRittModel-NoExtraConstraint-2.log"
Gurobi Optimizer version 11.0.1 build v11.0.1rc0 (win64 - Windows 10.0 (19045.2))

CPU model: 11th Gen Intel(R) Core(TM) i7-1165G7 @ 2.80GHz, instruction set [SSE2|AVX|AVX2|AVX512]
Thread count: 4 physical cores, 8 logical processors, using up to 1 threads


Gurobi 11.0.1 (win64) logging started Thu Apr  4 23:33:30 2024

Set parameter LogFile to value "C:\Projetos\Job_Rotation_Algorithms\Outputs\GurobiLogs\gurobi_log-output-26_wee-c67-BorbaRittModel-NoExtraConstraint-2.log"
Gurobi Optimizer version 11.0.1 build v11.0.1rc0 (win64 - Windows 10.0 (19045.2))

CPU model: 11th Gen Intel(R) Core(TM) i7-1165G7 @ 2.80GHz, instruction set [SSE2|AVX|AVX2|AVX512]
Thread count: 4 physical cores, 8 logical processors, using up to 1 threads


Gurobi 11.0.1 (win64) logging started Sat Apr  6 13:03:05 2024

Set parameter LogFile to value "C:\Projetos\Job_Rotation_Algorithms\Outputs\GurobiLogs\gurobi_log-output-26_wee-c67-BorbaRittModel-NoExtraConstraint-2.log"
Gurobi Optimizer version 11.0.1 build v11.0.1rc0 (win64 - Windows 10.0 (19045.2))

CPU model: 11th Gen Intel(R) Core(TM) i7-1165G7 @ 2.80GHz, instruction set [SSE2|AVX|AVX2|AVX512]
Thread count: 4 physical cores, 8 logical processors, using up to 1 threads


Gurobi 11.0.1 (win64) logging started Sun Apr  7 02:35:57 2024

Set parameter LogFile to value "C:\Projetos\Job_Rotation_Algorithms\Outputs\GurobiLogs\gurobi_log-output-26_wee-c67-BorbaRittModel-NoExtraConstraint-2.log"
Gurobi Optimizer version 11.0.1 build v11.0.1rc0 (win64 - Windows 10.0 (19045.2))

CPU model: 11th Gen Intel(R) Core(TM) i7-1165G7 @ 2.80GHz, instruction set [SSE2|AVX|AVX2|AVX512]
Thread count: 4 physical cores, 8 logical processors, using up to 1 threads


Gurobi 11.0.1 (win64) logging started Sun Apr  7 09:48:53 2024

Set parameter LogFile to value "C:\Projetos\Job_Rotation_Algorithms\Outputs\GurobiLogs\gurobi_log-output-26_wee-c67-BorbaRittModel-NoExtraConstraint-2.log"
Gurobi Optimizer version 11.0.1 build v11.0.1rc0 (win64 - Windows 10.0 (19045.2))

CPU model: 11th Gen Intel(R) Core(TM) i7-1165G7 @ 2.80GHz, instruction set [SSE2|AVX|AVX2|AVX512]
Thread count: 4 physical cores, 8 logical processors, using up to 1 threads


Gurobi 11.0.1 (win64) logging started Tue Apr  9 08:07:29 2024

Set parameter LogFile to value "C:\Projetos\Job_Rotation_Algorithms\Outputs\GurobiLogs\gurobi_log-output-26_wee-c67-BorbaRittModel-NoExtraConstraint-2.log"
Gurobi Optimizer version 11.0.1 build v11.0.1rc0 (win64 - Windows 10.0 (19045.2))

CPU model: 11th Gen Intel(R) Core(TM) i7-1165G7 @ 2.80GHz, instruction set [SSE2|AVX|AVX2|AVX512]
Thread count: 4 physical cores, 8 logical processors, using up to 1 threads


Gurobi 11.0.1 (win64) logging started Wed Apr 10 17:37:10 2024

Set parameter LogFile to value "C:\Projetos\Job_Rotation_Algorithms\Outputs\GurobiLogs\gurobi_log-output-26_wee-c67-BorbaRittModel-NoExtraConstraint-2.log"
Gurobi Optimizer version 11.0.1 build v11.0.1rc0 (win64 - Windows 10.0 (19045.2))

CPU model: 11th Gen Intel(R) Core(TM) i7-1165G7 @ 2.80GHz, instruction set [SSE2|AVX|AVX2|AVX512]
Thread count: 4 physical cores, 8 logical processors, using up to 1 threads


Gurobi 11.0.1 (win64) logging started Thu Apr 11 01:42:27 2024

Set parameter LogFile to value "C:\Projetos\Job_Rotation_Algorithms\Outputs\GurobiLogs\gurobi_log-output-26_wee-c67-BorbaRittModel-NoExtraConstraint-2.log"
Gurobi Optimizer version 11.0.1 build v11.0.1rc0 (win64 - Windows 10.0 (19045.2))

CPU model: 11th Gen Intel(R) Core(TM) i7-1165G7 @ 2.80GHz, instruction set [SSE2|AVX|AVX2|AVX512]
Thread count: 4 physical cores, 8 logical processors, using up to 1 threads


Gurobi 11.0.1 (win64) logging started Sun Apr 21 02:59:02 2024

Set parameter LogFile to value "C:\Projetos\Job_Rotation_Algorithms\Outputs\GurobiLogs\gurobi_log-output-26_wee-c67-BorbaRittModel-NoExtraConstraint-2.log"
Gurobi Optimizer version 11.0.1 build v11.0.1rc0 (win64 - Windows 10.0 (19045.2))

CPU model: 11th Gen Intel(R) Core(TM) i7-1165G7 @ 2.80GHz, instruction set [SSE2|AVX|AVX2|AVX512]
Thread count: 4 physical cores, 8 logical processors, using up to 1 threads


Gurobi 11.0.1 (win64) logging started Fri Apr 26 07:41:02 2024

Set parameter LogFile to value "C:\Projetos\Job_Rotation_Algorithms\Outputs\GurobiLogs\gurobi_log-output-26_wee-c67-BorbaRittModel-NoExtraConstraint-2.log"
Gurobi Optimizer version 11.0.1 build v11.0.1rc0 (win64 - Windows 10.0 (19045.2))

CPU model: 11th Gen Intel(R) Core(TM) i7-1165G7 @ 2.80GHz, instruction set [SSE2|AVX|AVX2|AVX512]
Thread count: 4 physical cores, 8 logical processors, using up to 1 threads


Gurobi 11.0.1 (win64) logging started Sat Apr 27 04:32:33 2024

Set parameter LogFile to value "C:\Projetos\Job_Rotation_Algorithms\Outputs\GurobiLogs\gurobi_log-output-26_wee-c67-BorbaRittModel-NoExtraConstraint-2.log"
Gurobi Optimizer version 11.0.1 build v11.0.1rc0 (win64 - Windows 10.0 (19045.2))

CPU model: 11th Gen Intel(R) Core(TM) i7-1165G7 @ 2.80GHz, instruction set [SSE2|AVX|AVX2|AVX512]
Thread count: 4 physical cores, 8 logical processors, using up to 1 threads


Gurobi 11.0.1 (win64) logging started Sat Apr 27 14:50:31 2024

Set parameter LogFile to value "C:\Projetos\Job_Rotation_Algorithms\Outputs\GurobiLogs\gurobi_log-output-26_wee-c67-BorbaRittModel-NoExtraConstraint-2.log"
Gurobi Optimizer version 11.0.1 build v11.0.1rc0 (win64 - Windows 10.0 (19045.2))

CPU model: 11th Gen Intel(R) Core(TM) i7-1165G7 @ 2.80GHz, instruction set [SSE2|AVX|AVX2|AVX512]
Thread count: 4 physical cores, 8 logical processors, using up to 1 threads


Gurobi 11.0.1 (win64) logging started Mon Apr 29 08:05:25 2024

Set parameter LogFile to value "C:\Projetos\Job_Rotation_Algorithms\Outputs\GurobiLogs\gurobi_log-output-26_wee-c67-BorbaRittModel-NoExtraConstraint-2.log"
Gurobi Optimizer version 11.0.1 build v11.0.1rc0 (win64 - Windows 10.0 (19045.2))

CPU model: 11th Gen Intel(R) Core(TM) i7-1165G7 @ 2.80GHz, instruction set [SSE2|AVX|AVX2|AVX512]
Thread count: 4 physical cores, 8 logical processors, using up to 1 threads

WLS license 901038 - registered to Bitka Analytics
Optimize a model with 17662 rows, 2391 columns and 55273 nonzeros
Model fingerprint: 0x4f461fe4
Variable types: 2 continuous, 2389 integer (2389 binary)
Coefficient statistics:
  Matrix range     [1e+00, 5e+01]
  Objective range  [1e+00, 1e+00]
  Bounds range     [1e+00, 1e+02]
  RHS range        [1e+00, 1e+02]
Presolve removed 1 rows and 1 columns
Presolve time: 0.11s
Presolved: 17661 rows, 2390 columns, 55271 nonzeros
Variable types: 0 continuous, 2390 integer (2389 binary)
Root relaxation presolved: 17661 rows, 2390 columns, 55271 nonzeros


Root relaxation: objective 1.500000e+02, 4675 iterations, 1.08 seconds (0.92 work units)

    Nodes    |    Current Node    |     Objective Bounds      |     Work
 Expl Unexpl |  Obj  Depth IntInf | Incumbent    BestBd   Gap | It/Node Time

     0     0  150.00000    0  475          -  150.00000      -     -    2s
     0     0  150.00000    0  503          -  150.00000      -     -    4s
     0     0  150.00000    0  456          -  150.00000      -     -    4s
     0     0  150.00000    0  253          -  150.00000      -     -    7s
     0     0  150.00000    0  292          -  150.00000      -     -    7s
     0     0  150.00000    0  448          -  150.00000      -     -    9s
     0     0  150.00000    0  416          -  150.00000      -     -    9s
     0     0  150.00000    0  397          -  150.00000      -     -   11s
     0     0  150.00000    0  394          -  150.00000      -     -   11s
     0     0  150.00000    0  315          -  150.00000      -     -   12s
     0     0  150.00000    0  294          -  150.00000      -     -   13s
     0     0  150.00000    0  339          -  150.00000      -     -   15s
     0     0  150.00000    0  268          -  150.00000      -     -   16s
     0     2  150.00000    0  268          -  150.00000      -     -   21s
    42    44  150.00000   25  336          -  150.00000      -   307   25s
   100    81  150.00000    6  302          -  150.00000      -   259   30s
   191   168  150.00000   60  230          -  150.00000      -   207   35s
   287   223  147.27300   89  383          -  150.00000      -   197   40s
   415   307  150.00000   62  258          -  150.00000      -   172   45s
   498   370  150.00000   66  239          -  150.00000      -   174   50s
   607   451  148.18456  137  304          -  150.00000      -   162   55s
   623   453  150.00000   53  400          -  150.00000      -   158   60s
   627   456  150.00000   33  353          -  150.00000      -   157   66s
   629   457  150.00000   39  295          -  150.00000      -   157   70s
   633   460  150.00000   52  212          -  150.00000      -   156   77s
   635   461  150.00000   44  343          -  150.00000      -   155   80s
   638   463  150.00000   87  265          -  150.00000      -   155   85s
   641   465  150.00000   50  260          -  150.00000      -   154   90s
   644   469  150.00000   15  239          -  150.00000      -   116   95s
   663   482  150.00000   24  222          -  150.00000      -   116  100s
   707   511  150.00000   46  294          -  150.00000      -   121  105s
   739   528  150.00000   62  346          -  150.00000      -   125  110s
   776   521  150.00000   19  250          -  150.00000      -   136  115s
   818   549  150.00000   40  274          -  150.00000      -   142  120s
   875   579  150.00000   23  259          -  150.00000      -   146  125s
   924   610  150.00000   48  321          -  150.00000      -   149  130s
   968   635 infeasible   70               -  150.00000      -   157  135s
  1018   654  150.00000   53  305          -  150.00000      -   161  140s
  1051   676  150.00000   70  299          -  150.00000      -   163  145s
  1112   715  150.00000  100  386          -  150.00000      -   162  150s
  1150   718  150.00000  117  246          -  150.00000      -   169  155s
  1206   738  150.00000   52  258          -  150.00000      -   173  160s
  1261   760  150.00000   55  216          -  150.00000      -   177  165s
  1294   772  150.00000   70  251          -  150.00000      -   178  170s
  1349   805  150.00000   67  276          -  150.00000      -   181  175s
  1395   832  150.00000   90  300          -  150.00000      -   185  180s
  1430   851  150.00000  108  341          -  150.00000      -   186  185s
  1496   875  150.00000   68  219          -  150.00000      -   187  190s
  1528   894  150.00000   84  294          -  150.00000      -   192  195s
  1574   907  150.00000   56  260          -  150.00000      -   196  200s
  1646   945  150.00000   92  232          -  150.00000      -   203  205s
  1723   962  150.00000   65  298          -  150.00000      -   208  210s
  1772   985  150.00000   58  359          -  150.00000      -   210  215s
  1798  1000  150.00000   73  444          -  150.00000      -   215  220s
  1808  1007  150.00000   79  399          -  150.00000      -   217  230s
  1834  1024  150.00000   89  337          -  150.00000      -   220  235s
  1868  1021  150.00000   49  257          -  150.00000      -   224  240s
  1954  1058  150.00000   59  275          -  150.00000      -   229  245s
  2019  1092  150.00000   92  442          -  150.00000      -   230  250s
  2083  1110  150.00000  109  324          -  150.00000      -   235  255s
  2160  1151  150.00000   77  265          -  150.00000      -   239  260s
  2244  1187  150.00000   64  269          -  150.00000      -   245  265s
  2313  1240  150.00000   65  329          -  150.00000      -   251  270s
  2367  1276  150.00000   69  287          -  150.00000      -   255  275s
  2431  1310 infeasible   95               -  150.00000      -   256  280s
  2475  1330 infeasible   69               -  150.00000      -   262  285s
  2535  1360  150.00000   64  306          -  150.00000      -   267  290s
  2591  1400  150.00000   58  265          -  150.00000      -   271  295s
  2653  1434  150.00000   70  273          -  150.00000      -   272  300s
  2689  1468  149.00000   87  279          -  150.00000      -   274  305s
  2715  1482  147.07014  102  368          -  150.00000      -   278  310s
  2745  1502  149.00000  111  348          -  150.00000      -   280  315s
  2793  1528  150.00000   65  255          -  150.00000      -   281  320s
  2847  1572 infeasible   95               -  150.00000      -   284  325s
  2891  1586 infeasible  106               -  150.00000      -   286  330s
  2979  1666 infeasible   79               -  150.00000      -   284  335s
  3036  1693 infeasible  103               -  150.00000      -   286  340s
  3071  1720  150.00000   47  249          -  150.00000      -   285  349s
  3087  1726 infeasible   53               -  150.00000      -   284  350s
  3156  1785 infeasible   70               -  150.00000      -   285  355s
  3224  1837  150.00000  104  191          -  150.00000      -   285  360s
  3310  1897  150.00000   45  365          -  150.00000      -   284  365s
  3393  1974 infeasible   87               -  150.00000      -   283  370s
  3452  1999 infeasible   48               -  150.00000      -   284  375s
  3537  2062  150.00000   90  321          -  150.00000      -   283  380s
  3592  2109  150.00000   69  328          -  150.00000      -   285  385s
  3654  2145  150.00000   50  261          -  150.00000      -   287  390s
  3746  2231  150.00000   83  239          -  150.00000      -   288  395s
  3825  2276 infeasible  105               -  150.00000      -   290  400s
  3928  2355  150.00000   49  286          -  150.00000      -   289  405s
  4041  2434  150.00000   53  224          -  150.00000      -   289  410s
  4131  2478 infeasible   94               -  150.00000      -   290  415s
  4231  2528 infeasible   56               -  150.00000      -   291  420s
  4342  2611  150.00000   64  263          -  150.00000      -   290  425s
  4429  2680 infeasible  107               -  150.00000      -   291  430s
  4537  2762  150.00000   77  321          -  150.00000      -   290  435s
  4644  2831  150.00000   83  280          -  150.00000      -   291  440s
  4703  2878  150.00000  111  303          -  150.00000      -   295  445s
  4755  2916  150.00000   42  288          -  150.00000      -   297  450s
  4834  2989  150.00000   87  317          -  150.00000      -   298  455s
  4876  2999  150.00000   60  281          -  150.00000      -   301  460s
  4943  3064  150.00000   92  282          -  150.00000      -   303  465s
  5002  3101  150.00000   73  232          -  150.00000      -   306  470s
  5017  3114  150.00000   77  209          -  150.00000      -   306  476s
  5080  3163  150.00000  105  268          -  150.00000      -   306  480s
  5164  3227  150.00000   73  438          -  150.00000      -   306  485s
  5240  3277  150.00000   59  261          -  150.00000      -   305  490s
  5315  3324  150.00000   89  222          -  150.00000      -   305  495s
  5381  3352 infeasible  114               -  150.00000      -   306  500s
  5474  3441  150.00000   76  337          -  150.00000      -   305  505s
  5543  3478 infeasible  106               -  150.00000      -   305  510s
  5608  3507  150.00000   79  314          -  150.00000      -   305  515s
  5633  3532  150.00000   89  240          -  150.00000      -   308  520s
  5681  3572  150.00000  109  314          -  150.00000      -   309  525s
  5710  3587  148.25546  119  360          -  150.00000      -   311  530s
  5793  3654  150.00000   78  245          -  150.00000      -   310  535s
  5877  3714 infeasible   79               -  150.00000      -   310  540s
  5977  3782 infeasible   86               -  150.00000      -   309  545s
  6036  3813 infeasible  109               -  150.00000      -   309  550s
  6106  3837  150.00000   61  324          -  150.00000      -   310  555s
  6177  3874  150.00000   50  204          -  150.00000      -   310  560s
  6201  3898  150.00000   65  263          -  150.00000      -   309  567s
  6246  3937  150.00000   85  336          -  150.00000      -   309  570s
  6294  3973  150.00000  102  318          -  150.00000      -   310  575s
  6377  4032 infeasible   81               -  150.00000      -   309  580s
  6459  4072  150.00000   52  215          -  150.00000      -   309  585s
  6561  4168  150.00000   96  309          -  150.00000      -   309  590s
  6628  4221  150.00000   66  207          -  150.00000      -   310  595s
  6772  4341  150.00000   79  207          -  150.00000      -   308  600s
  6851  4398  150.00000   67  342          -  150.00000      -   309  605s
  6948  4473 infeasible   94               -  150.00000      -   309  610s
  7022  4525  150.00000   81  271          -  150.00000      -   310  615s
  7094  4579  150.00000  112  286          -  150.00000      -   311  620s
  7188  4637  150.00000   68  204          -  150.00000      -   312  625s
  7277  4690  150.00000   76  275          -  150.00000      -   313  630s
  7373  4726  150.00000   87  262          -  150.00000      -   313  635s
  7457  4774 infeasible  100               -  150.00000      -   314  640s
  7518  4823  150.00000  103  247          -  150.00000      -   317  645s
  7595  4866  150.00000   93  240          -  150.00000      -   319  650s
  7675  4906 infeasible   89               -  150.00000      -   321  655s
  7776  4987  150.00000   95  268          -  150.00000      -   321  660s
  7891  5048  150.00000   77  234          -  150.00000      -   321  665s
H 7918  5063                     128.0000000  150.00000  17.2%   321  671s
H 7918  5063                     137.0000000  150.00000  9.49%   321  671s
H 7918  5063                     140.0000000  150.00000  7.14%   321  671s
H 7918  5063                     141.0000000  150.00000  6.38%   321  671s
H 7970  5101                     142.0000000  150.00000  5.63%   322  674s
  7974  5107  150.00000   85  214  142.00000  150.00000  5.63%   322  675s
H 7996  5121                     143.0000000  150.00000  4.90%   323  676s
H 7999  5120                     145.0000000  150.00000  3.45%   323  676s
H 8026  5127                     146.0000000  150.00000  2.74%   323  678s
  8075  5176 infeasible  122       146.00000  150.00000  2.74%   322  680s
H 8100  5190                     147.0000000  150.00000  2.04%   321  681s
  8172  5244 infeasible  114       147.00000  150.00000  2.04%   321  685s
  8281  5343  150.00000  162  304  147.00000  150.00000  2.04%   319  690s
  8345  5385  150.00000   77  236  147.00000  150.00000  2.04%   319  695s
  8418  5442  150.00000  106  312  147.00000  150.00000  2.04%   318  700s
  8511  5521  150.00000  116  299  147.00000  150.00000  2.04%   317  705s
  8578  5561  150.00000   95  268  147.00000  150.00000  2.04%   317  710s
  8627  5584  150.00000   75  220  147.00000  150.00000  2.04%   317  715s
  8702  5647  150.00000  105  340  147.00000  150.00000  2.04%   318  720s
  8736  5669  150.00000  123  288  147.00000  150.00000  2.04%   318  727s
  8759  5678 infeasible  132       147.00000  150.00000  2.04%   319  730s
  8811  5720  150.00000  106  284  147.00000  150.00000  2.04%   319  735s
  8896  5791  150.00000  131  301  147.00000  150.00000  2.04%   317  740s
  8946  5835 infeasible  179       147.00000  150.00000  2.04%   317  745s
  8952  5835  150.00000  178  308  147.00000  150.00000  2.04%   317  755s
  9018  5887  150.00000  119  266  147.00000  150.00000  2.04%   316  760s
  9060  5901  150.00000   74  212  147.00000  150.00000  2.04%   317  765s
  9094  5931  150.00000  105  268  147.00000  150.00000  2.04%   317  770s
H 9100     4                     150.0000000  150.00000  0.00%   317  770s

Cutting planes:
  Lift-and-project: 1
  MIR: 1
  Flow cover: 3
  RLT: 11
  BQP: 20

Explored 9101 nodes (3024219 simplex iterations) in 770.21 seconds (660.48 work units)
Thread count was 1 (of 8 available processors)

Solution count 10: 150 147 146 ... 128

Optimal solution found (tolerance 1.00e-03)
Best objective 1.500000000000e+02, best bound 1.500000000000e+02, gap 0.0000%
